p tw 128 21121 2 
1 66 
1 68 
1 70 
1 72 
1 73 
1 75 
1 78 
1 79 
1 82 
1 83 
1 85 
1 88 
1 89 
1 91 
1 93 
1 95 
1 97 
1 99 
1 102 
1 103 
1 105 
1 107 
1 109 
1 111 
1 113 
1 115 
1 117 
1 119 
1 121 
1 123 
1 125 
1 127 
2 65 
2 67 
2 69 
2 71 
2 74 
2 76 
2 77 
2 80 
2 81 
2 84 
2 86 
2 87 
2 90 
2 92 
2 94 
2 96 
2 98 
2 100 
2 101 
2 104 
2 106 
2 108 
2 110 
2 112 
2 114 
2 116 
2 118 
2 120 
2 122 
2 124 
2 126 
2 128 
3 4 
3 66 
3 68 
3 70 
3 72 
3 73 
3 76 
3 78 
3 80 
3 82 
3 84 
3 86 
3 88 
3 90 
3 91 
3 94 
3 96 
3 98 
3 100 
3 102 
3 104 
3 105 
3 107 
3 110 
3 112 
3 114 
3 115 
3 118 
3 120 
3 121 
3 124 
3 125 
3 127 
4 65 
4 67 
4 69 
4 71 
4 74 
4 75 
4 77 
4 79 
4 81 
4 83 
4 85 
4 87 
4 89 
4 92 
4 93 
4 95 
4 97 
4 99 
4 101 
4 103 
4 106 
4 108 
4 109 
4 111 
4 113 
4 116 
4 117 
4 119 
4 122 
4 123 
4 126 
4 128 
5 6 
5 65 
5 67 
5 69 
5 72 
5 74 
5 75 
5 77 
5 80 
5 82 
5 84 
5 85 
5 88 
5 89 
5 91 
5 93 
5 95 
5 98 
5 100 
5 102 
5 103 
5 106 
5 107 
5 110 
5 112 
5 114 
5 115 
5 117 
5 119 
5 122 
5 124 
5 126 
5 127 
6 66 
6 68 
6 70 
6 71 
6 73 
6 76 
6 78 
6 79 
6 81 
6 83 
6 86 
6 87 
6 90 
6 92 
6 94 
6 96 
6 97 
6 99 
6 101 
6 104 
6 105 
6 108 
6 109 
6 111 
6 113 
6 116 
6 118 
6 120 
6 121 
6 123 
6 125 
6 128 
7 8 
7 66 
7 68 
7 70 
7 71 
7 74 
7 75 
7 77 
7 79 
7 82 
7 84 
7 86 
7 87 
7 89 
7 92 
7 94 
7 95 
7 98 
7 99 
7 101 
7 104 
7 105 
7 107 
7 109 
7 112 
7 114 
7 116 
7 117 
7 119 
7 121 
7 124 
7 126 
7 127 
8 65 
8 67 
8 69 
8 72 
8 73 
8 76 
8 78 
8 80 
8 81 
8 83 
8 85 
8 88 
8 90 
8 91 
8 93 
8 96 
8 97 
8 100 
8 102 
8 103 
8 106 
8 108 
8 110 
8 111 
8 113 
8 115 
8 118 
8 120 
8 122 
8 123 
8 125 
8 128 
9 10 
9 66 
9 68 
9 70 
9 72 
9 74 
9 75 
9 78 
9 80 
9 82 
9 84 
9 85 
9 88 
9 89 
9 92 
9 93 
9 96 
9 97 
9 99 
9 102 
9 104 
9 106 
9 108 
9 109 
9 111 
9 114 
9 116 
9 118 
9 120 
9 122 
9 124 
9 126 
9 128 
10 65 
10 67 
10 69 
10 71 
10 73 
10 76 
10 77 
10 79 
10 81 
10 83 
10 86 
10 87 
10 90 
10 91 
10 94 
10 95 
10 98 
10 100 
10 101 
10 103 
10 105 
10 107 
10 110 
10 112 
10 113 
10 115 
10 117 
10 119 
10 121 
10 123 
10 125 
10 127 
11 12 
11 66 
11 68 
11 69 
11 71 
11 74 
11 76 
11 77 
11 80 
11 82 
11 83 
11 86 
11 87 
11 89 
11 91 
11 93 
11 96 
11 98 
11 100 
11 102 
11 103 
11 105 
11 108 
11 109 
11 111 
11 113 
11 116 
11 117 
11 120 
11 122 
11 124 
11 125 
11 127 
12 65 
12 67 
12 70 
12 72 
12 73 
12 75 
12 78 
12 79 
12 81 
12 84 
12 85 
12 88 
12 90 
12 92 
12 94 
12 95 
12 97 
12 99 
12 101 
12 104 
12 106 
12 107 
12 110 
12 112 
12 114 
12 115 
12 118 
12 119 
12 121 
12 123 
12 126 
12 128 
13 14 
13 66 
13 67 
13 70 
13 72 
13 73 
13 76 
13 77 
13 79 
13 81 
13 83 
13 86 
13 87 
13 90 
13 91 
13 93 
13 95 
13 97 
13 99 
13 102 
13 104 
13 106 
13 107 
13 110 
13 111 
13 114 
13 116 
13 117 
13 120 
13 122 
13 124 
13 126 
13 127 
14 65 
14 68 
14 69 
14 71 
14 74 
14 75 
14 78 
14 80 
14 82 
14 84 
14 85 
14 88 
14 89 
14 92 
14 94 
14 96 
14 98 
14 100 
14 101 
14 103 
14 105 
14 108 
14 109 
14 112 
14 113 
14 115 
14 118 
14 119 
14 121 
14 123 
14 125 
14 128 
15 16 
15 66 
15 67 
15 70 
15 71 
15 74 
15 76 
15 77 
15 80 
15 82 
15 83 
15 85 
15 88 
15 90 
15 92 
15 93 
15 95 
15 97 
15 100 
15 101 
15 103 
15 106 
15 107 
15 109 
15 112 
15 114 
15 116 
15 118 
15 120 
15 121 
15 123 
15 125 
15 127 
16 65 
16 68 
16 69 
16 72 
16 73 
16 75 
16 78 
16 79 
16 81 
16 84 
16 86 
16 87 
16 89 
16 91 
16 94 
16 96 
16 98 
16 99 
16 102 
16 104 
16 105 
16 108 
16 110 
16 111 
16 113 
16 115 
16 117 
16 119 
16 122 
16 124 
16 126 
16 128 
17 18 
17 66 
17 68 
17 69 
17 71 
17 73 
17 75 
17 78 
17 80 
17 81 
17 84 
17 86 
17 87 
17 90 
17 91 
17 93 
17 95 
17 97 
17 100 
17 102 
17 103 
17 105 
17 107 
17 109 
17 112 
17 114 
17 116 
17 118 
17 119 
17 122 
17 123 
17 126 
17 128 
18 65 
18 67 
18 70 
18 72 
18 74 
18 76 
18 77 
18 79 
18 82 
18 83 
18 85 
18 88 
18 89 
18 92 
18 94 
18 96 
18 98 
18 99 
18 101 
18 104 
18 106 
18 108 
18 110 
18 111 
18 113 
18 115 
18 117 
18 120 
18 121 
18 124 
18 125 
18 127 
19 20 
19 66 
19 67 
19 70 
19 71 
19 73 
19 75 
19 77 
19 80 
19 82 
19 83 
19 86 
19 88 
19 89 
19 91 
19 94 
19 95 
19 98 
19 99 
19 101 
19 103 
19 105 
19 108 
19 110 
19 111 
19 114 
19 115 
19 118 
19 120 
19 122 
19 123 
19 126 
19 128 
20 65 
20 68 
20 69 
20 72 
20 74 
20 76 
20 78 
20 79 
20 81 
20 84 
20 85 
20 87 
20 90 
20 92 
20 93 
20 96 
20 97 
20 100 
20 102 
20 104 
20 106 
20 107 
20 109 
20 112 
20 113 
20 116 
20 117 
20 119 
20 121 
20 124 
20 125 
20 127 
21 22 
21 66 
21 67 
21 69 
21 72 
21 74 
21 76 
21 78 
21 79 
21 82 
21 84 
21 86 
21 87 
21 89 
21 92 
21 93 
21 96 
21 97 
21 100 
21 101 
21 103 
21 105 
21 107 
21 110 
21 111 
21 114 
21 115 
21 117 
21 120 
21 121 
21 123 
21 126 
21 128 
22 65 
22 68 
22 70 
22 71 
22 73 
22 75 
22 77 
22 80 
22 81 
22 83 
22 85 
22 88 
22 90 
22 91 
22 94 
22 95 
22 98 
22 99 
22 102 
22 104 
22 106 
22 108 
22 109 
22 112 
22 113 
22 116 
22 118 
22 119 
22 122 
22 124 
22 125 
22 127 
23 24 
23 66 
23 67 
23 70 
23 71 
23 73 
23 76 
23 78 
23 79 
23 82 
23 83 
23 85 
23 87 
23 89 
23 91 
23 93 
23 96 
23 98 
23 100 
23 101 
23 104 
23 106 
23 107 
23 109 
23 112 
23 113 
23 115 
23 118 
23 119 
23 122 
23 124 
23 126 
23 128 
24 65 
24 68 
24 69 
24 72 
24 74 
24 75 
24 77 
24 80 
24 81 
24 84 
24 86 
24 88 
24 90 
24 92 
24 94 
24 95 
24 97 
24 99 
24 102 
24 103 
24 105 
24 108 
24 110 
24 111 
24 114 
24 116 
24 117 
24 120 
24 121 
24 123 
24 125 
24 127 
25 26 
25 65 
25 68 
25 70 
25 71 
25 74 
25 75 
25 78 
25 79 
25 81 
25 83 
25 86 
25 87 
25 89 
25 92 
25 93 
25 96 
25 98 
25 99 
25 102 
25 103 
25 106 
25 107 
25 110 
25 112 
25 114 
25 115 
25 118 
25 120 
25 122 
25 123 
25 125 
25 127 
26 66 
26 67 
26 69 
26 72 
26 73 
26 76 
26 77 
26 80 
26 82 
26 84 
26 85 
26 88 
26 90 
26 91 
26 94 
26 95 
26 97 
26 100 
26 101 
26 104 
26 105 
26 108 
26 109 
26 111 
26 113 
26 116 
26 117 
26 119 
26 121 
26 124 
26 126 
26 128 
27 28 
27 65 
27 68 
27 69 
27 72 
27 73 
27 76 
27 78 
27 80 
27 82 
27 83 
27 85 
27 87 
27 90 
27 92 
27 93 
27 95 
27 98 
27 99 
27 101 
27 104 
27 105 
27 108 
27 109 
27 112 
27 114 
27 115 
27 117 
27 120 
27 122 
27 123 
27 126 
27 127 
28 66 
28 67 
28 70 
28 71 
28 74 
28 75 
28 77 
28 79 
28 81 
28 84 
28 86 
28 88 
28 89 
28 91 
28 94 
28 96 
28 97 
28 100 
28 102 
28 103 
28 106 
28 107 
28 110 
28 111 
28 113 
28 116 
28 118 
28 119 
28 121 
28 124 
28 125 
28 128 
29 30 
29 66 
29 68 
29 69 
29 72 
29 73 
29 75 
29 77 
29 79 
29 81 
29 83 
29 86 
29 88 
29 90 
29 92 
29 93 
29 96 
29 98 
29 100 
29 101 
29 103 
29 106 
29 108 
29 109 
29 111 
29 114 
29 115 
29 118 
29 119 
29 121 
29 124 
29 126 
29 127 
30 65 
30 67 
30 70 
30 71 
30 74 
30 76 
30 78 
30 80 
30 82 
30 84 
30 85 
30 87 
30 89 
30 91 
30 94 
30 95 
30 97 
30 99 
30 102 
30 104 
30 105 
30 107 
30 110 
30 112 
30 113 
30 116 
30 117 
30 120 
30 122 
30 123 
30 125 
30 128 
31 32 
31 65 
31 67 
31 70 
31 72 
31 74 
31 76 
31 78 
31 79 
31 81 
31 84 
31 86 
31 88 
31 89 
31 91 
31 93 
31 95 
31 98 
31 100 
31 101 
31 104 
31 105 
31 108 
31 109 
31 111 
31 114 
31 116 
31 118 
31 119 
31 122 
31 123 
31 125 
31 127 
32 66 
32 68 
32 69 
32 71 
32 73 
32 75 
32 77 
32 80 
32 82 
32 83 
32 85 
32 87 
32 90 
32 92 
32 94 
32 96 
32 97 
32 99 
32 102 
32 103 
32 106 
32 107 
32 110 
32 112 
32 113 
32 115 
32 117 
32 120 
32 121 
32 124 
32 126 
32 128 
33 34 
33 65 
33 68 
33 70 
33 71 
33 73 
33 76 
33 78 
33 80 
33 81 
33 83 
33 85 
33 88 
33 89 
33 92 
33 94 
33 96 
33 97 
33 100 
33 101 
33 103 
33 105 
33 107 
33 110 
33 111 
33 114 
33 116 
33 117 
33 119 
33 122 
33 124 
33 126 
33 127 
34 66 
34 67 
34 69 
34 72 
34 74 
34 75 
34 77 
34 79 
34 82 
34 84 
34 86 
34 87 
34 90 
34 91 
34 93 
34 95 
34 98 
34 99 
34 102 
34 104 
34 106 
34 108 
34 109 
34 112 
34 113 
34 115 
34 118 
34 120 
34 121 
34 123 
34 125 
34 128 
35 36 
35 66 
35 67 
35 70 
35 72 
35 73 
35 75 
35 77 
35 80 
35 81 
35 83 
35 85 
35 87 
35 89 
35 92 
35 93 
35 96 
35 98 
35 100 
35 102 
35 104 
35 105 
35 108 
35 110 
35 112 
35 114 
35 116 
35 117 
35 119 
35 121 
35 123 
35 125 
35 128 
36 65 
36 68 
36 69 
36 71 
36 74 
36 76 
36 78 
36 79 
36 82 
36 84 
36 86 
36 88 
36 90 
36 91 
36 94 
36 95 
36 97 
36 99 
36 101 
36 103 
36 106 
36 107 
36 109 
36 111 
36 113 
36 115 
36 118 
36 120 
36 122 
36 124 
36 126 
36 127 
37 38 
37 65 
37 68 
37 70 
37 72 
37 74 
37 75 
37 77 
37 80 
37 82 
37 83 
37 86 
37 87 
37 90 
37 91 
37 94 
37 96 
37 97 
37 100 
37 101 
37 104 
37 106 
37 107 
37 109 
37 111 
37 114 
37 115 
37 117 
37 119 
37 122 
37 123 
37 125 
37 128 
38 66 
38 67 
38 69 
38 71 
38 73 
38 76 
38 78 
38 79 
38 81 
38 84 
38 85 
38 88 
38 89 
38 92 
38 93 
38 95 
38 98 
38 99 
38 102 
38 103 
38 105 
38 108 
38 110 
38 112 
38 113 
38 116 
38 118 
38 120 
38 121 
38 124 
38 126 
38 127 
39 40 
39 66 
39 68 
39 69 
39 72 
39 74 
39 75 
39 78 
39 80 
39 81 
39 83 
39 85 
39 87 
39 89 
39 91 
39 94 
39 95 
39 98 
39 100 
39 101 
39 104 
39 106 
39 107 
39 110 
39 111 
39 113 
39 116 
39 118 
39 120 
39 121 
39 123 
39 126 
39 127 
40 65 
40 67 
40 70 
40 71 
40 73 
40 76 
40 77 
40 79 
40 82 
40 84 
40 86 
40 88 
40 90 
40 92 
40 93 
40 96 
40 97 
40 99 
40 102 
40 103 
40 105 
40 108 
40 109 
40 112 
40 114 
40 115 
40 117 
40 119 
40 122 
40 124 
40 125 
40 128 
41 42 
41 65 
41 68 
41 70 
41 72 
41 74 
41 76 
41 77 
41 79 
41 81 
41 83 
41 85 
41 87 
41 89 
41 91 
41 94 
41 95 
41 97 
41 100 
41 102 
41 103 
41 105 
41 108 
41 109 
41 112 
41 114 
41 115 
41 118 
41 120 
41 121 
41 124 
41 126 
41 128 
42 66 
42 67 
42 69 
42 71 
42 73 
42 75 
42 78 
42 80 
42 82 
42 84 
42 86 
42 88 
42 90 
42 92 
42 93 
42 96 
42 98 
42 99 
42 101 
42 104 
42 106 
42 107 
42 110 
42 111 
42 113 
42 116 
42 117 
42 119 
42 122 
42 123 
42 125 
42 127 
43 44 
43 66 
43 68 
43 69 
43 72 
43 73 
43 76 
43 77 
43 79 
43 81 
43 84 
43 85 
43 88 
43 89 
43 91 
43 94 
43 96 
43 98 
43 99 
43 101 
43 103 
43 106 
43 107 
43 109 
43 112 
43 114 
43 116 
43 117 
43 120 
43 122 
43 123 
43 125 
43 128 
44 65 
44 67 
44 70 
44 71 
44 74 
44 75 
44 78 
44 80 
44 82 
44 83 
44 86 
44 87 
44 90 
44 92 
44 93 
44 95 
44 97 
44 100 
44 102 
44 104 
44 105 
44 108 
44 110 
44 111 
44 113 
44 115 
44 118 
44 119 
44 121 
44 124 
44 126 
44 127 
45 46 
45 66 
45 67 
45 70 
45 72 
45 73 
45 75 
45 78 
45 80 
45 81 
45 84 
45 86 
45 87 
45 89 
45 92 
45 94 
45 95 
45 97 
45 100 
45 101 
45 103 
45 106 
45 108 
45 109 
45 112 
45 113 
45 115 
45 117 
45 120 
45 122 
45 124 
45 125 
45 127 
46 65 
46 68 
46 69 
46 71 
46 74 
46 76 
46 77 
46 79 
46 82 
46 83 
46 85 
46 88 
46 90 
46 91 
46 93 
46 96 
46 98 
46 99 
46 102 
46 104 
46 105 
46 107 
46 110 
46 111 
46 114 
46 116 
46 118 
46 119 
46 121 
46 123 
46 126 
46 128 
47 48 
47 66 
47 68 
47 70 
47 72 
47 74 
47 76 
47 77 
47 80 
47 81 
47 84 
47 85 
47 87 
47 90 
47 92 
47 93 
47 95 
47 98 
47 99 
47 101 
47 103 
47 105 
47 107 
47 110 
47 111 
47 113 
47 115 
47 118 
47 119 
47 122 
47 124 
47 125 
47 128 
48 65 
48 67 
48 69 
48 71 
48 73 
48 75 
48 78 
48 79 
48 82 
48 83 
48 86 
48 88 
48 89 
48 91 
48 94 
48 96 
48 97 
48 100 
48 102 
48 104 
48 106 
48 108 
48 109 
48 112 
48 114 
48 116 
48 117 
48 120 
48 121 
48 123 
48 126 
48 127 
49 50 
49 66 
49 68 
49 69 
49 71 
49 74 
49 76 
49 78 
49 80 
49 81 
49 83 
49 86 
49 88 
49 89 
49 91 
49 93 
49 95 
49 97 
49 99 
49 101 
49 104 
49 106 
49 108 
49 110 
49 112 
49 114 
49 115 
49 117 
49 119 
49 121 
49 124 
49 125 
49 128 
50 65 
50 67 
50 70 
50 72 
50 73 
50 75 
50 77 
50 79 
50 82 
50 84 
50 85 
50 87 
50 90 
50 92 
50 94 
50 96 
50 98 
50 100 
50 102 
50 103 
50 105 
50 107 
50 109 
50 111 
50 113 
50 116 
50 118 
50 120 
50 122 
50 123 
50 126 
50 127 
51 52 
51 66 
51 67 
51 70 
51 71 
51 74 
51 76 
51 78 
51 80 
51 81 
51 84 
51 85 
51 87 
51 90 
51 91 
51 94 
51 96 
51 98 
51 99 
51 102 
51 103 
51 106 
51 108 
51 109 
51 111 
51 114 
51 115 
51 117 
51 119 
51 121 
51 123 
51 126 
51 127 
52 65 
52 68 
52 69 
52 72 
52 73 
52 75 
52 77 
52 79 
52 82 
52 83 
52 86 
52 88 
52 89 
52 92 
52 93 
52 95 
52 97 
52 100 
52 101 
52 104 
52 105 
52 107 
52 110 
52 112 
52 113 
52 116 
52 118 
52 120 
52 122 
52 124 
52 125 
52 128 
53 54 
53 65 
53 68 
53 70 
53 71 
53 73 
53 76 
53 77 
53 80 
53 81 
53 84 
53 86 
53 88 
53 89 
53 92 
53 93 
53 95 
53 98 
53 100 
53 102 
53 104 
53 106 
53 107 
53 109 
53 111 
53 113 
53 115 
53 117 
53 120 
53 121 
53 123 
53 126 
53 128 
54 66 
54 67 
54 69 
54 72 
54 74 
54 75 
54 78 
54 79 
54 82 
54 83 
54 85 
54 87 
54 90 
54 91 
54 94 
54 96 
54 97 
54 99 
54 101 
54 103 
54 105 
54 108 
54 110 
54 112 
54 114 
54 116 
54 118 
54 119 
54 122 
54 124 
54 125 
54 127 
55 56 
55 65 
55 67 
55 69 
55 72 
55 73 
55 76 
55 78 
55 80 
55 82 
55 83 
55 86 
55 87 
55 89 
55 92 
55 94 
55 95 
55 98 
55 99 
55 102 
55 103 
55 106 
55 107 
55 109 
55 111 
55 114 
55 116 
55 118 
55 119 
55 121 
55 124 
55 125 
55 128 
56 66 
56 68 
56 70 
56 71 
56 74 
56 75 
56 77 
56 79 
56 81 
56 84 
56 85 
56 88 
56 90 
56 91 
56 93 
56 96 
56 97 
56 100 
56 101 
56 104 
56 105 
56 108 
56 110 
56 112 
56 113 
56 115 
56 117 
56 120 
56 122 
56 123 
56 126 
56 127 
57 58 
57 66 
57 68 
57 69 
57 71 
57 73 
57 76 
57 77 
57 79 
57 82 
57 84 
57 85 
57 87 
57 89 
57 92 
57 94 
57 95 
57 97 
57 100 
57 102 
57 104 
57 106 
57 108 
57 110 
57 111 
57 114 
57 115 
57 118 
57 119 
57 122 
57 123 
57 125 
57 127 
58 65 
58 67 
58 70 
58 72 
58 74 
58 75 
58 78 
58 80 
58 81 
58 83 
58 86 
58 88 
58 90 
58 91 
58 93 
58 96 
58 98 
58 99 
58 101 
58 103 
58 105 
58 107 
58 109 
58 112 
58 113 
58 116 
58 117 
58 120 
58 121 
58 124 
58 126 
58 128 
59 60 
59 66 
59 67 
59 69 
59 72 
59 74 
59 76 
59 77 
59 80 
59 81 
59 83 
59 86 
59 88 
59 89 
59 92 
59 94 
59 96 
59 97 
59 99 
59 102 
59 104 
59 105 
59 107 
59 109 
59 112 
59 113 
59 115 
59 118 
59 119 
59 122 
59 123 
59 126 
59 127 
60 65 
60 68 
60 70 
60 71 
60 73 
60 75 
60 78 
60 79 
60 82 
60 84 
60 85 
60 87 
60 90 
60 91 
60 93 
60 95 
60 98 
60 100 
60 101 
60 103 
60 106 
60 108 
60 110 
60 111 
60 114 
60 116 
60 117 
60 120 
60 121 
60 124 
60 125 
60 128 
61 62 
61 65 
61 68 
61 70 
61 72 
61 73 
61 76 
61 77 
61 80 
61 82 
61 84 
61 86 
61 87 
61 89 
61 91 
61 93 
61 96 
61 97 
61 99 
61 101 
61 103 
61 106 
61 108 
61 110 
61 112 
61 113 
61 116 
61 118 
61 119 
61 121 
61 123 
61 126 
61 127 
62 66 
62 67 
62 69 
62 71 
62 74 
62 75 
62 78 
62 79 
62 81 
62 83 
62 85 
62 88 
62 90 
62 92 
62 94 
62 95 
62 98 
62 100 
62 102 
62 104 
62 105 
62 107 
62 109 
62 111 
62 114 
62 115 
62 117 
62 120 
62 122 
62 124 
62 125 
62 128 
63 64 
63 66 
63 68 
63 70 
63 72 
63 74 
63 76 
63 78 
63 79 
63 82 
63 83 
63 86 
63 88 
63 90 
63 92 
63 94 
63 95 
63 98 
63 100 
63 102 
63 103 
63 106 
63 108 
63 110 
63 112 
63 113 
63 116 
63 117 
63 119 
63 122 
63 123 
63 126 
63 128 
64 65 
64 67 
64 69 
64 71 
64 73 
64 75 
64 77 
64 80 
64 81 
64 84 
64 85 
64 87 
64 89 
64 91 
64 93 
64 96 
64 97 
64 99 
64 101 
64 104 
64 105 
64 107 
64 109 
64 111 
64 114 
64 115 
64 118 
64 120 
64 121 
64 124 
64 125 
64 127 
65 66 
67 68 
69 70 
71 72 
73 74 
75 76 
77 78 
79 80 
81 82 
83 84 
85 86 
87 88 
89 90 
91 92 
93 94 
95 96 
97 98 
99 100 
101 102 
103 104 
105 106 
107 108 
109 110 
111 112 
113 114 
115 116 
117 118 
119 120 
121 122 
123 124 
125 126 
127 128 
